111,212
220,340
358,378
289,332
203,244
150,133
293,93
135,181
398,318
5,129
187,39
340,96
220,63
196,338
287,298
255,9
201,130
352,389
249,310
286,346
291,282
273,368
127,340
349,321
186,178
287,386
195,189
86,342
363,262
205,232
227,255
387,210
88,65
137,394
257,311
382,172
49,129
396,340
384,21
138,8
55,358
103,17
7,294
86,377
315,136
350,178
269,385
98,288
16,206
144,250
